c Result of efficient AIG-to-CNF conversion using package CNF
p cnf 95 386
-2 90 3 48 0
-2 90 3 70 0
-2 3 48 70 0
2 -90 -48 0
2 -48 -70 0
2 -3 0
2 -90 -70 0
-3 -90 4 46 0
-3 -90 43 46 0
-3 4 43 46 0
3 90 -4 0
3 -4 -43 0
3 -46 0
3 90 -43 0
4 -5 -27 0
4 13 -27 0
4 89 -27 0
-4 27 0
-4 -89 5 -13 0
-5 -93 9 0
-5 -93 6 0
-5 6 9 0
5 -6 -9 0
5 93 -9 0
5 93 -6 0
6 88 -92 -7 0
-6 7 0
-6 92 0
-6 -88 0
7 -91 -8 0
-7 91 0
-7 8 0
8 94 -95 96 0
-8 -94 0
-8 95 0
-8 -96 0
-9 10 0
9 -10 0
10 -88 -94 -12 0
10 -88 -94 -11 0
-10 88 0
-10 94 0
-10 11 12 0
11 91 -95 -96 0
-11 96 0
-11 95 0
-11 -91 0
12 -91 -92 95 96 0
-12 92 0
-12 -96 0
-12 91 0
-12 -95 0
13 -16 20 24 0
13 -14 20 24 0
-13 -20 0
-13 -24 0
-13 14 16 0
-14 -88 15 0
-14 91 15 0
14 -15 0
14 88 -91 0
-15 92 94 0
15 -92 0
15 -94 0
16 14 17 -19 0
-16 -14 0
-16 19 0
-16 -17 0
17 95 -96 -18 0
-17 18 0
-17 96 0
-17 -95 0
18 -91 -93 0
-18 91 0
-18 93 0
-19 93 95 96 0
19 -93 0
19 -96 0
19 -95 0
-20 21 23 0
-20 22 23 0
-20 21 22 0
20 -21 -22 0
20 -22 -23 0
20 -21 -23 0
21 92 -94 0
-21 -92 0
-21 94 0
22 -93 -11 0
22 88 -11 0
-22 11 0
-22 -88 93 0
23 88 -91 19 0
-23 -19 0
-23 91 0
-23 -88 0
24 -95 -25 26 0
24 -18 -25 26 0
-24 -26 0
-24 25 0
-24 95 18 0
25 88 -92 96 0
-25 -88 0
-25 92 0
-25 -96 0
-26 91 -94 0
-26 94 95 0
26 -91 -94 0
26 94 -95 0
-27 28 34 0
-27 34 -35 0
-27 28 -35 0
27 -28 35 0
27 -34 35 0
27 -28 -34 0
-28 -91 29 0
-28 29 32 0
-28 -96 29 0
28 -29 0
28 91 96 -32 0
-29 88 31 0
-29 88 30 0
29 -88 0
29 -30 -31 0
30 -91 94 95 -96 0
-30 96 0
-30 -95 0
-30 91 0
-30 -94 0
31 -92 -93 0
-31 92 0
-31 93 0
-32 88 33 0
-32 21 33 0
-32 88 21 0
32 -88 -21 0
32 -21 -33 0
32 -88 -33 0
33 93 -95 0
-33 -93 0
-33 95 0
-34 89 -91 0
-34 89 8 0
-34 89 31 0
34 -89 0
34 91 -8 -31 0
35 -88 36 -40 0
35 -88 36 38 0
-35 88 0
-35 -36 0
-35 -38 40 0
36 93 95 96 -37 0
36 -93 -95 -96 -37 0
-36 -95 96 0
-36 93 -96 0
-36 37 0
-36 -93 95 0
-37 -91 -94 0
-37 91 94 0
-37 -91 92 0
37 91 -94 0
37 -91 -92 94 0
38 -8 -39 0
38 95 18 -39 0
-38 39 0
-38 -95 8 0
-38 8 -18 0
-39 93 94 0
39 -93 0
39 -94 0
-40 -96 41 0
-40 -96 38 0
-40 41 38 0
-40 -18 41 0
-40 -18 38 0
40 -41 -38 0
40 96 18 -41 0
40 96 18 -38 0
-41 31 42 0
41 -31 0
41 -42 0
42 91 -94 0
-42 -91 0
-42 94 0
43 90 -44 15 -45 0
-43 -90 0
-43 45 0
-43 -15 0
-43 44 0
44 88 -91 0
-44 -88 0
-44 91 0
45 -93 -95 -96 0
-45 93 0
-45 95 0
-45 96 0
46 -94 -95 -25 -47 0
-46 47 0
-46 94 0
-46 25 0
-46 95 0
47 -89 -18 0
-47 89 0
-47 18 0
48 92 -96 -49 0
48 92 96 -64 0
-48 -92 0
-48 -96 49 0
-48 96 64 0
49 50 -55 -59 0
49 50 56 -59 0
-49 -50 0
-49 59 0
-49 55 -56 0
-50 51 -52 0
-50 -52 53 0
-50 51 53 0
50 52 -53 0
50 -51 52 0
50 -51 -53 0
51 89 -42 0
-51 -89 0
-51 42 0
52 88 -93 94 -95 0
52 88 93 -94 95 0
-52 93 -95 0
-52 94 95 0
-52 -88 0
-52 -93 -94 0
-53 54 0
53 -54 0
54 -89 91 0
54 91 -94 0
-54 -91 0
-54 89 94 0
55 -88 93 94 -95 0
-55 95 0
-55 -94 0
-55 88 0
-55 -93 0
56 94 -58 0
56 -95 -58 0
56 57 -58 0
-56 58 0
-56 -94 95 -57 0
57 88 -93 0
-57 -88 0
-57 93 0
58 -89 -91 0
-58 89 0
-58 91 0
-59 89 60 -63 0
-59 89 61 -63 0
-59 89 60 61 0
59 -60 -61 0
59 -60 63 0
59 -89 0
59 -61 63 0
60 -88 33 0
60 -94 33 0
-60 -33 0
-60 88 94 0
61 88 -93 -95 0
61 -93 -95 -62 0
-61 95 0
-61 93 0
-61 -88 62 0
62 -91 94 0
-62 91 0
-62 -94 0
-63 93 62 0
63 -93 0
63 -62 0
-64 -33 66 0
-64 66 69 0
-64 -65 66 0
64 -66 0
64 33 65 -69 0
65 -94 95 0
65 -93 94 0
-65 -94 -95 0
-65 93 94 0
-66 67 68 0
-66 93 95 68 0
-66 -93 -95 68 0
-66 -93 -95 67 0
-66 93 95 67 0
66 -67 -68 0
66 93 -95 -67 0
66 93 -95 -68 0
66 -93 95 -67 0
66 -93 95 -68 0
67 89 -42 57 0
-67 -89 0
-67 42 0
-67 -57 0
68 88 -89 -91 94 0
-68 -88 0
-68 -94 0
-68 91 0
-68 89 0
69 -88 -89 91 0
-69 88 0
-69 89 0
-69 -91 0
70 -90 71 -77 0
-70 90 0
-70 -71 0
-70 77 0
-71 88 0
-71 89 -72 0
71 -88 -89 0
71 -88 72 0
-72 -93 73 0
-72 8 73 0
72 -73 0
72 93 -8 0
-73 -74 76 0
-73 30 -74 0
-73 30 76 0
73 -30 74 0
73 74 -76 0
73 -30 -76 0
-74 -94 75 0
-74 -94 95 0
-74 95 75 0
74 -95 -75 0
74 94 -75 0
74 94 -95 0
-75 91 96 0
75 -91 0
75 -96 0
-76 -94 95 0
-76 93 95 0
-76 93 -94 0
76 -93 -95 0
76 -93 94 0
76 94 -95 0
-77 78 85 0
-77 92 85 0
-77 92 78 0
77 -92 -85 0
77 -92 -78 0
77 -78 -85 0
-78 80 0
-78 62 -79 0
78 -62 -80 0
78 79 -80 0
-79 -42 62 0
-79 89 62 0
79 -62 0
79 -89 42 0
-80 88 81 83 0
-80 88 82 83 0
80 -88 0
80 -83 0
80 -81 -82 0
-81 88 93 0
-81 88 -95 0
81 -88 0
81 -93 95 0
82 -94 95 75 0
-82 94 0
-82 -95 0
-82 -75 0
83 -89 -96 -33 0
83 -96 -84 -33 0
-83 33 0
-83 96 0
-83 89 84 0
84 -91 -94 0
-84 91 0
-84 94 0
85 -92 -86 0
-85 92 0
-85 86 0
86 94 -87 -47 0
86 94 -87 63 0
-86 -94 0
-86 87 0
-86 47 -63 0
87 95 -96 0
-87 -95 0
-87 96 0
-97 0
2 0

